rikudo = [
    _,_,_,22,    
    1,26,_,36,_,
    _,_,_,_,_,_,
    3,_,30,34,_,18,
    5,_,_,_,_,_,
    7,8,_,_,_,
    _,_,13,_
];

links_size = 4;
links = array2d(1..links_size,1..2,
   [ 7,12,
   30,31,
   33,34,
   34,30
   ]
);
